c 53_win_checker.cnf
c
c field = 53
c formula set type = win_checker
c
p cnf 5 62
96 
98 
100 
102 
-94 
97 
99 
101 
103 
-95 
96 
98 
100 
102 
-106 
97 
99 
101 
103 
-107 
98 
100 
102 
106 
-96 
99 
101 
103 
107 
-97 
98 
100 
102 
106 
-108 
99 
101 
103 
107 
-109 
100 
102 
106 
108 
-98 
101 
103 
107 
109 
-99 
100 
102 
106 
108 
-110 
101 
103 
107 
109 
-111 
102 
106 
108 
110 
-100 
103 
107 
109 
111 
-101 
102 
106 
108 
110 
-112 
103 
107 
109 
111 
-113 
106 
108 
110 
112 
-102 
107 
109 
111 
113 
-103 
106 
108 
110 
112 
-114 
107 
109 
111 
113 
-115 
14 
44 
74 
134 
-164 
15 
45 
75 
135 
-165 
44 
74 
134 
164 
-14 
45 
75 
135 
165 
-15 
44 
74 
134 
164 
-194 
45 
75 
135 
165 
-195 
74 
134 
164 
194 
-44 
75 
135 
165 
195 
-45 
74 
134 
164 
194 
-224 
75 
135 
165 
195 
-225 
134 
164 
194 
224 
-74 
135 
165 
195 
225 
-75 
134 
164 
194 
224 
-254 
135 
165 
195 
225 
-255 
8 
40 
72 
136 
-168 
9 
41 
73 
137 
-169 
40 
72 
136 
168 
-8 
41 
73 
137 
169 
-9 
40 
72 
136 
168 
-200 
41 
73 
137 
169 
-201 
72 
136 
168 
200 
-40 
73 
137 
169 
201 
-41 
72 
136 
168 
200 
-232 
73 
137 
169 
201 
-233 
136 
168 
200 
232 
-72 
137 
169 
201 
233 
-73 
136 
168 
200 
232 
-264 
137 
169 
201 
233 
-265 
20 
48 
76 
132 
-160 
21 
49 
77 
133 
-161 
48 
76 
132 
160 
-20 
49 
77 
133 
161 
-21 
48 
76 
132 
160 
-188 
49 
77 
133 
161 
-189 
76 
132 
160 
188 
-48 
77 
133 
161 
189 
-49 
76 
132 
160 
188 
-216 
77 
133 
161 
189 
-217 
132 
160 
188 
216 
-76 
133 
161 
189 
217 
-77 
132 
160 
188 
216 
-244 
133 
161 
189 
217 
-245 
